solution status: optimal solution found
objective value:                     142151.424463931
d11(0,0)                                            1 	(obj:0)
d11(1,1)                                            1 	(obj:0)
d11(1,2)                                            1 	(obj:0)
d11(2,4)                                            1 	(obj:0)
d11(2,7)                                            1 	(obj:0)
d11(2,10)                                           1 	(obj:0)
d11(3,13)                                           1 	(obj:0)
d11(3,16)                                           1 	(obj:0)
d11(3,17)                                           1 	(obj:0)
d11(3,19)                                           1 	(obj:0)
d11(3,20)                                           1 	(obj:0)
d11(3,22)                                           1 	(obj:0)
d11(3,23)                                           1 	(obj:0)
d11(3,25)                                           1 	(obj:0)
d11(3,28)                                           1 	(obj:0)
d11(3,31)                                           1 	(obj:0)
d11(3,32)                                           1 	(obj:0)
d11(3,34)                                           1 	(obj:0)
d11(3,35)                                           1 	(obj:0)
d11(3,37)                                           1 	(obj:0)
d11(4,40)                                           1 	(obj:0)
d11(4,41)                                           1 	(obj:0)
d11(4,43)                                           1 	(obj:0)
d11(4,44)                                           1 	(obj:0)
d11(4,46)                                           1 	(obj:0)
d11(4,47)                                           1 	(obj:0)
d11(4,49)                                           1 	(obj:0)
d11(4,50)                                           1 	(obj:0)
d11(4,52)                                           1 	(obj:0)
d11(4,53)                                           1 	(obj:0)
d11(4,55)                                           1 	(obj:0)
d11(4,56)                                           1 	(obj:0)
d11(4,58)                                           1 	(obj:0)
d11(4,59)                                           1 	(obj:0)
d11(4,61)                                           1 	(obj:0)
d11(4,62)                                           1 	(obj:0)
d11(4,64)                                           1 	(obj:0)
d11(4,65)                                           1 	(obj:0)
d11(4,67)                                           1 	(obj:0)
d11(4,68)                                           1 	(obj:0)
d11(4,70)                                           1 	(obj:0)
d11(4,71)                                           1 	(obj:0)
d11(4,73)                                           1 	(obj:0)
d11(4,74)                                           1 	(obj:0)
d11(4,76)                                           1 	(obj:0)
d11(4,77)                                           1 	(obj:0)
d11(4,79)                                           1 	(obj:0)
d11(4,80)                                           1 	(obj:0)
d11(4,82)                                           1 	(obj:0)
d11(4,83)                                           1 	(obj:0)
d11(4,85)                                           1 	(obj:0)
d11(4,86)                                           1 	(obj:0)
d11(4,88)                                           1 	(obj:0)
d11(4,89)                                           1 	(obj:0)
d11(4,91)                                           1 	(obj:0)
d11(4,92)                                           1 	(obj:0)
d11(4,94)                                           1 	(obj:0)
d11(4,95)                                           1 	(obj:0)
d11(4,97)                                           1 	(obj:0)
d11(4,98)                                           1 	(obj:0)
d11(4,100)                                          1 	(obj:0)
d11(4,101)                                          1 	(obj:0)
d11(4,103)                                          1 	(obj:0)
d11(4,104)                                          1 	(obj:0)
d11(4,106)                                          1 	(obj:0)
d11(4,107)                                          1 	(obj:0)
d11(4,109)                                          1 	(obj:0)
d11(4,110)                                          1 	(obj:0)
d11(4,112)                                          1 	(obj:0)
d11(4,113)                                          1 	(obj:0)
d11(4,115)                                          1 	(obj:0)
d11(4,116)                                          1 	(obj:0)
d11(4,118)                                          1 	(obj:0)
d11(4,119)                                          1 	(obj:0)
d12(1,3)                                            1 	(obj:0)
d12(2,6)                                            1 	(obj:0)
d12(2,9)                                            1 	(obj:0)
d12(2,12)                                           1 	(obj:0)
d12(3,15)                                           1 	(obj:0)
d12(3,18)                                           1 	(obj:0)
d12(3,21)                                           1 	(obj:0)
d12(3,24)                                           1 	(obj:0)
d12(3,27)                                           1 	(obj:0)
d12(3,30)                                           1 	(obj:0)
d12(3,33)                                           1 	(obj:0)
d12(3,36)                                           1 	(obj:0)
d12(3,39)                                           1 	(obj:0)
d12(4,42)                                           1 	(obj:0)
d12(4,45)                                           1 	(obj:0)
d12(4,48)                                           1 	(obj:0)
d12(4,51)                                           1 	(obj:0)
d12(4,54)                                           1 	(obj:0)
d12(4,57)                                           1 	(obj:0)
d12(4,60)                                           1 	(obj:0)
d12(4,63)                                           1 	(obj:0)
d12(4,66)                                           1 	(obj:0)
d12(4,69)                                           1 	(obj:0)
d12(4,72)                                           1 	(obj:0)
d12(4,75)                                           1 	(obj:0)
d12(4,78)                                           1 	(obj:0)
d12(4,81)                                           1 	(obj:0)
d12(4,84)                                           1 	(obj:0)
d12(4,87)                                           1 	(obj:0)
d12(4,90)                                           1 	(obj:0)
d12(4,93)                                           1 	(obj:0)
d12(4,96)                                           1 	(obj:0)
d12(4,99)                                           1 	(obj:0)
d12(4,102)                                          1 	(obj:0)
d12(4,105)                                          1 	(obj:0)
d12(4,108)                                          1 	(obj:0)
d12(4,111)                                          1 	(obj:0)
d12(4,114)                                          1 	(obj:0)
d12(4,117)                                          1 	(obj:0)
d12(4,120)                                          1 	(obj:0)
d21(2,4)                                            1 	(obj:0)
d21(2,5)                                            1 	(obj:0)
d21(3,13)                                           1 	(obj:0)
d21(3,14)                                           1 	(obj:0)
d21(3,15)                                           1 	(obj:0)
d21(3,16)                                           1 	(obj:0)
d21(3,17)                                           1 	(obj:0)
d21(3,19)                                           1 	(obj:0)
d21(3,22)                                           1 	(obj:0)
d21(3,23)                                           1 	(obj:0)
d21(3,25)                                           1 	(obj:0)
d21(3,31)                                           1 	(obj:0)
d21(4,40)                                           1 	(obj:0)
d21(4,41)                                           1 	(obj:0)
d21(4,42)                                           1 	(obj:0)
d21(4,43)                                           1 	(obj:0)
d21(4,44)                                           1 	(obj:0)
d21(4,45)                                           1 	(obj:0)
d21(4,46)                                           1 	(obj:0)
d21(4,47)                                           1 	(obj:0)
d21(4,48)                                           1 	(obj:0)
d21(4,49)                                           1 	(obj:0)
d21(4,50)                                           1 	(obj:0)
d21(4,51)                                           1 	(obj:0)
d21(4,52)                                           1 	(obj:0)
d21(4,53)                                           1 	(obj:0)
d21(4,55)                                           1 	(obj:0)
d21(4,58)                                           1 	(obj:0)
d21(4,59)                                           1 	(obj:0)
d21(4,60)                                           1 	(obj:0)
d21(4,61)                                           1 	(obj:0)
d21(4,64)                                           1 	(obj:0)
d21(4,67)                                           1 	(obj:0)
d21(4,68)                                           1 	(obj:0)
d21(4,69)                                           1 	(obj:0)
d21(4,70)                                           1 	(obj:0)
d21(4,71)                                           1 	(obj:0)
d21(4,73)                                           1 	(obj:0)
d21(4,76)                                           1 	(obj:0)
d21(4,77)                                           1 	(obj:0)
d21(4,79)                                           1 	(obj:0)
d21(4,82)                                           1 	(obj:0)
d21(4,85)                                           1 	(obj:0)
d21(4,94)                                           1 	(obj:0)
d21(4,95)                                           1 	(obj:0)
d21(4,97)                                           1 	(obj:0)
d21(4,100)                                          1 	(obj:0)
d21(4,103)                                          1 	(obj:0)
d21(4,112)                                          1 	(obj:0)
y2(4,102)                            813.934676393631 	(obj:0)
y2(4,105)                            813.934676393631 	(obj:0)
y2(4,108)                            813.934676393631 	(obj:0)
y2(4,111)                            813.934676393631 	(obj:0)
y2(4,114)                            813.934676393631 	(obj:0)
y2(4,117)                            813.934676393631 	(obj:0)
y2(4,120)                            813.934676393631 	(obj:0)
STE(1,1)                                       2740.5 	(obj:0)
STE(0,0)                                         4725 	(obj:0)
STE(1,2)                             3737.26600333329 	(obj:0)
STE(1,3)                             4716.96229457143 	(obj:0)
STE(2,4)                             1365.73399666671 	(obj:0)
STE(2,5)                                       2362.5 	(obj:0)
STE(2,6)                             3275.06333384999 	(obj:0)
STE(2,7)                                       2362.5 	(obj:0)
STE(2,8)                             3359.26600333329 	(obj:0)
STE(2,9)                             4271.82933718328 	(obj:0)
STE(2,10)                            3342.19629123814 	(obj:0)
STE(2,11)                            4338.96229457143 	(obj:0)
STE(2,12)                            5251.52562842142 	(obj:0)
STE(3,13)                           -9.03200666658263 	(obj:0)
STE(3,14)                            987.733996666708 	(obj:0)
STE(3,15)                             1900.2973305167 	(obj:0)
STE(3,16)                            987.733996666709 	(obj:0)
STE(3,17)                                      1984.5 	(obj:0)
STE(3,18)                            2897.06333384998 	(obj:0)
STE(3,19)                             1900.2973305167 	(obj:0)
STE(3,20)                            2897.06333384993 	(obj:0)
STE(3,21)                            3809.62666769998 	(obj:0)
STE(3,22)                            987.733996666709 	(obj:0)
STE(3,23)                                      1984.5 	(obj:0)
STE(3,24)                            2897.06333384999 	(obj:0)
STE(3,25)                                      1984.5 	(obj:0)
STE(3,26)                            2981.26600333329 	(obj:0)
STE(3,27)                            3893.82933718328 	(obj:0)
STE(3,28)                            2897.06333384999 	(obj:0)
STE(3,29)                            3893.82933718328 	(obj:0)
STE(3,30)                            4806.39267103327 	(obj:0)
STE(3,31)                            1967.43028790485 	(obj:0)
STE(3,32)                            2964.19629123808 	(obj:0)
STE(3,33)                            3876.75962508813 	(obj:0)
STE(3,34)                            2964.19629123814 	(obj:0)
STE(3,35)                            3960.96229457137 	(obj:0)
STE(3,36)                            4873.52562842142 	(obj:0)
STE(3,37)                            3876.75962508813 	(obj:0)
STE(3,38)                            4873.52562842142 	(obj:0)
STE(3,39)                            5786.08896227141 	(obj:0)
STE(4,40)                           -1540.36134384986 	(obj:0)
STE(4,41)                           -543.595340516564 	(obj:0)
STE(4,42)                            386.205935907367 	(obj:0)
STE(4,43)                           -543.595340516564 	(obj:0)
STE(4,44)                            453.170662816727 	(obj:0)
STE(4,45)                            1382.97193924066 	(obj:0)
STE(4,46)                            368.967993333423 	(obj:0)
STE(4,47)                            1365.73399666671 	(obj:0)
STE(4,48)                            2295.53527309064 	(obj:0)
STE(4,49)                           -543.595340516563 	(obj:0)
STE(4,50)                            453.170662816728 	(obj:0)
STE(4,51)                            1382.97193924066 	(obj:0)
STE(4,52)                            453.170662816728 	(obj:0)
STE(4,53)                            1449.93666615002 	(obj:0)
STE(4,54)                            2379.73794257395 	(obj:0)
STE(4,55)                            1365.73399666671 	(obj:0)
STE(4,56)                                      2362.5 	(obj:0)
STE(4,57)                            3292.30127642393 	(obj:0)
STE(4,58)                            368.967993333425 	(obj:0)
STE(4,59)                            1365.73399666678 	(obj:0)
STE(4,60)                            2295.53527309065 	(obj:0)
STE(4,61)                            1365.73399666665 	(obj:0)
STE(4,62)                            2362.49999999995 	(obj:0)
STE(4,63)                            3292.30127642388 	(obj:0)
STE(4,64)                             2278.2973305167 	(obj:0)
STE(4,65)                            3275.06333384999 	(obj:0)
STE(4,66)                            4204.86461027392 	(obj:0)
STE(4,67)                           -543.595340516563 	(obj:0)
STE(4,68)                            453.170662816728 	(obj:0)
STE(4,69)                            1382.97193924066 	(obj:0)
STE(4,70)                            453.170662816728 	(obj:0)
STE(4,71)                            1449.93666615002 	(obj:0)
STE(4,72)                            2379.73794257395 	(obj:0)
STE(4,73)                            1365.73399666672 	(obj:0)
STE(4,74)                            2362.50000000001 	(obj:0)
STE(4,75)                            3292.30127642394 	(obj:0)
STE(4,76)                            453.170662816727 	(obj:0)
STE(4,77)                            1449.93666615002 	(obj:0)
STE(4,78)                            2379.73794257395 	(obj:0)
STE(4,79)                            1449.93666615002 	(obj:0)
STE(4,80)                            2446.70266948331 	(obj:0)
STE(4,81)                            3376.50394590724 	(obj:0)
STE(4,82)                            2362.50000000001 	(obj:0)
STE(4,83)                             3359.2660033333 	(obj:0)
STE(4,84)                            4289.06727975723 	(obj:0)
STE(4,85)                            1365.73399666672 	(obj:0)
STE(4,86)                            2362.50000000001 	(obj:0)
STE(4,87)                            3292.30127642394 	(obj:0)
STE(4,88)                            2362.50000000001 	(obj:0)
STE(4,89)                             3359.2660033333 	(obj:0)
STE(4,90)                            4289.06727975723 	(obj:0)
STE(4,91)                            3275.06333384999 	(obj:0)
STE(4,92)                            4271.82933718328 	(obj:0)
STE(4,93)                            5201.63061360722 	(obj:0)
STE(4,94)                            436.100950721575 	(obj:0)
STE(4,95)                            1432.86695405487 	(obj:0)
STE(4,96)                             2362.6682304788 	(obj:0)
STE(4,97)                             1432.8669540548 	(obj:0)
STE(4,98)                             2429.6329573881 	(obj:0)
STE(4,99)                            3359.43423381203 	(obj:0)
STE(4,100)                           2345.43028790485 	(obj:0)
STE(4,101)                           3342.19629123814 	(obj:0)
STE(4,102)                           4271.99756766208 	(obj:0)
STE(4,103)                           1432.86695405487 	(obj:0)
STE(4,104)                           2429.63295738816 	(obj:0)
STE(4,105)                           3359.43423381209 	(obj:0)
STE(4,106)                            2429.6329573881 	(obj:0)
STE(4,107)                           3426.39896072139 	(obj:0)
STE(4,108)                           4356.20023714532 	(obj:0)
STE(4,109)                           3342.19629123815 	(obj:0)
STE(4,110)                           4338.96229457144 	(obj:0)
STE(4,111)                           5268.76357099537 	(obj:0)
STE(4,112)                           2345.43028790486 	(obj:0)
STE(4,113)                           3342.19629123815 	(obj:0)
STE(4,114)                           4271.99756766208 	(obj:0)
STE(4,115)                           3342.19629123815 	(obj:0)
STE(4,116)                           4338.96229457144 	(obj:0)
STE(4,117)                           5268.76357099537 	(obj:0)
STE(4,118)                           4254.75962508813 	(obj:0)
STE(4,119)                           5251.52562842142 	(obj:0)
STE(4,120)                           6181.32690484536 	(obj:0)
y1(4,100)                            1037.99640346495 	(obj:0)
y1(4,101)                            140.907000464983 	(obj:0)
y1(4,103)                            1037.99640346495 	(obj:0)
y1(4,104)                            140.907000464983 	(obj:0)
y1(4,106)                            1037.99640346495 	(obj:0)
y1(4,107)                            140.907000464983 	(obj:0)
y1(4,109)                            1037.99640346495 	(obj:0)
y1(4,110)                            140.907000464983 	(obj:0)
y1(4,112)                            1037.99640346495 	(obj:0)
y1(4,113)                            140.907000464983 	(obj:0)
y1(4,115)                            1037.99640346495 	(obj:0)
y1(4,116)                            140.907000464983 	(obj:0)
y1(4,118)                            1037.99640346495 	(obj:0)
y1(4,119)                            140.907000464983 	(obj:0)
WB(3)                                 3399.3204933139 	(obj:0)
AVE(3)                                3399.3204933139 	(obj:0)
AVE(4)                               3353.21046544222 	(obj:0)
y2(4,99)                             813.934676393631 	(obj:0)
WG(2)                                3326.45170866643 	(obj:10)
WG(4)                                3353.21046544222 	(obj:10)
BG(1)                                3937.80979285713 	(obj:10)
BG(2)                                  51.39829133357 	(obj:10)
BG(3)                                         3377.85 	(obj:10)
BG(4)                                168.422188093423 	(obj:10)
WB(1)                                3134.60043707458 	(obj:0)
AVE(1)                               3134.60043707458 	(obj:0)
AVE(2)                               3326.45170866643 	(obj:0)
y1(1,1)                                       1445.85 	(obj:0)
y1(1,2)                              548.760597000039 	(obj:0)
y1(2,4)                              897.089402999963 	(obj:0)
y1(2,7)                              897.089402999961 	(obj:0)
y1(2,10)                             897.089402999963 	(obj:0)
y1(3,13)                             897.089402999962 	(obj:0)
y1(3,16)                             897.089402999962 	(obj:0)
y1(3,19)                             897.089402999962 	(obj:0)
y1(3,22)                             897.089402999962 	(obj:0)
y1(3,25)                             897.089402999962 	(obj:0)
y1(3,28)                             897.089402999962 	(obj:0)
y1(3,31)                             897.089402999962 	(obj:0)
y1(3,34)                             897.089402999962 	(obj:0)
y1(3,37)                             897.089402999962 	(obj:0)
y1(4,40)                             1037.99640346495 	(obj:0)
y1(4,41)                             140.907000464983 	(obj:0)
y1(4,43)                             1037.99640346495 	(obj:0)
y1(4,44)                             140.907000464983 	(obj:0)
y1(4,46)                             1037.99640346495 	(obj:0)
y1(4,47)                             140.907000464983 	(obj:0)
y1(4,49)                             1037.99640346495 	(obj:0)
y1(4,50)                             140.907000464983 	(obj:0)
y1(4,52)                             1037.99640346495 	(obj:0)
y1(4,53)                             140.907000464983 	(obj:0)
y1(4,55)                             1037.99640346495 	(obj:0)
y1(4,56)                             140.907000464983 	(obj:0)
y1(4,58)                             1037.99640346495 	(obj:0)
y1(4,59)                             140.907000464923 	(obj:0)
y1(4,61)                             1037.99640346495 	(obj:0)
y1(4,62)                             140.907000464983 	(obj:0)
y1(4,64)                             1037.99640346495 	(obj:0)
y1(4,65)                             140.907000464983 	(obj:0)
y1(4,67)                             1037.99640346495 	(obj:0)
y1(4,68)                             140.907000464983 	(obj:0)
y1(4,70)                             1037.99640346495 	(obj:0)
y1(4,71)                             140.907000464983 	(obj:0)
y1(4,73)                             1037.99640346495 	(obj:0)
y1(4,74)                             140.907000464983 	(obj:0)
y1(4,76)                             1037.99640346495 	(obj:0)
y1(4,77)                             140.907000464983 	(obj:0)
y1(4,79)                             1037.99640346495 	(obj:0)
y1(4,80)                             140.907000464983 	(obj:0)
y1(4,82)                             1037.99640346495 	(obj:0)
y1(4,83)                             140.907000464983 	(obj:0)
y1(4,85)                             1037.99640346495 	(obj:0)
y1(4,86)                             140.907000464983 	(obj:0)
y1(4,88)                             1037.99640346495 	(obj:0)
y1(4,89)                             140.907000464983 	(obj:0)
y1(4,91)                             1037.99640346495 	(obj:0)
y1(4,92)                             140.907000464983 	(obj:0)
y1(4,94)                             1037.99640346495 	(obj:0)
y1(4,95)                             140.907000464983 	(obj:0)
y1(4,97)                             1037.99640346495 	(obj:0)
y1(4,98)                             140.907000464983 	(obj:0)
y2(1,3)                              389.433994285716 	(obj:0)
y2(2,6)                              960.592982999987 	(obj:0)
y2(2,9)                              960.592982999987 	(obj:0)
y2(2,12)                             960.592982999987 	(obj:0)
y2(3,15)                             960.592982999986 	(obj:0)
y2(3,18)                              960.59298299998 	(obj:0)
y2(3,21)                             960.592982999986 	(obj:0)
y2(3,24)                             960.592982999986 	(obj:0)
y2(3,27)                             960.592982999986 	(obj:0)
y2(3,30)                             960.592982999986 	(obj:0)
y2(3,33)                             960.592982999986 	(obj:0)
y2(3,36)                             960.592982999986 	(obj:0)
y2(3,39)                             960.592982999986 	(obj:0)
y2(4,42)                             813.934676393631 	(obj:0)
y2(4,45)                             813.934676393631 	(obj:0)
y2(4,48)                             813.934676393631 	(obj:0)
y2(4,51)                             813.934676393631 	(obj:0)
y2(4,54)                             813.934676393631 	(obj:0)
y2(4,57)                             813.934676393631 	(obj:0)
y2(4,60)                             813.934676393631 	(obj:0)
y2(4,63)                             813.934676393631 	(obj:0)
y2(4,66)                             813.934676393631 	(obj:0)
y2(4,69)                             813.934676393631 	(obj:0)
y2(4,72)                             813.934676393631 	(obj:0)
y2(4,75)                             813.934676393631 	(obj:0)
y2(4,78)                             813.934676393631 	(obj:0)
y2(4,81)                             813.934676393631 	(obj:0)
y2(4,84)                             813.934676393631 	(obj:0)
y2(4,87)                             813.934676393631 	(obj:0)
y2(4,90)                             813.934676393631 	(obj:0)
y2(4,93)                             813.934676393631 	(obj:0)
y2(4,96)                             813.934676393631 	(obj:0)
